MSW05
Position Depot: Center
Horizon for Depot: Small
Position of customers: Mixt
Distribution of the demand: Medium
Width of time windows: Wide
Distribution of the service: Small

VEHICLE 
NUMBER 	 CAPACITY 
 8 	 	 126 
 
CUSTOMER
CUST NO. 	 XCOORD.  	 YCOORD. 	 DEMAND 	 READY TIME 	 DUE DATE 	 SERVICE TIME 
 0 	 	 500 	 	 500 	 	 0 	 	 0 	 	 2303 	 	 0 
  1 	 	 429 	 	 909 	 	 86 	 	 248 	 	 456 	 	 72 
  2 	 	 651 	 	 637 	 	 9 	 	 1490 	 	 1914 	 	 80 
  3 	 	 188 	 	 894 	 	 8 	 	 315 	 	 811 	 	 96 
  4 	 	 76 	 	 56 	 	 3 	 	 2088 	 	 2303 	 	 98 
  5 	 	 701 	 	 724 	 	 79 	 	 370 	 	 640 	 	 70 
  6 	 	 589 	 	 607 	 	 5 	 	 1450 	 	 1707 	 	 52 
  7 	 	 482 	 	 883 	 	 7 	 	 1719 	 	 1977 	 	 96 
  8 	 	 56 	 	 78 	 	 96 	 	 1604 	 	 1804 	 	 95 
  9 	 	 79 	 	 82 	 	 90 	 	 1157 	 	 1589 	 	 90 
  10 	 	 669 	 	 772 	 	 100 	 	 395 	 	 620 	 	 70 
  11 	 	 642 	 	 734 	 	 3 	 	 1832 	 	 2130 	 	 86 
  12 	 	 249 	 	 798 	 	 82 	 	 249 	 	 599 	 	 59 
  13 	 	 179 	 	 139 	 	 3 	 	 798 	 	 1271 	 	 84 
  14 	 	 668 	 	 718 	 	 4 	 	 -21 	 	 323 	 	 57 
  15 	 	 505 	 	 678 	 	 9 	 	 632 	 	 924 	 	 72 
  16 	 	 39 	 	 893 	 	 6 	 	 228 	 	 666 	 	 82 
  17 	 	 719 	 	 669 	 	 6 	 	 1127 	 	 1551 	 	 99 
  18 	 	 250 	 	 746 	 	 8 	 	 793 	 	 1046 	 	 50 
  19 	 	 334 	 	 961 	 	 4 	 	 102 	 	 588 	 	 58 
  20 	 	 59 	 	 26 	 	 6 	 	 430 	 	 712 	 	 68 
  21 	 	 132 	 	 943 	 	 9 	 	 1487 	 	 1706 	 	 89 
  22 	 	 535 	 	 756 	 	 7 	 	 1724 	 	 2204 	 	 88 
  23 	 	 68 	 	 43 	 	 3 	 	 1283 	 	 1490 	 	 76 
  24 	 	 783 	 	 566 	 	 7 	 	 538 	 	 997 	 	 99 
  25 	 	 429 	 	 899 	 	 5 	 	 1580 	 	 1890 	 	 73 
  26 	 	 207 	 	 29 	 	 88 	 	 1840 	 	 2234 	 	 66 
  27 	 	 119 	 	 949 	 	 4 	 	 2039 	 	 2268 	 	 76 
  28 	 	 917 	 	 250 	 	 3 	 	 439 	 	 681 	 	 93 
  29 	 	 869 	 	 123 	 	 5 	 	 1403 	 	 1751 	 	 70 
  30 	 	 696 	 	 233 	 	 4 	 	 1574 	 	 1822 	 	 99 
  31 	 	 194 	 	 440 	 	 6 	 	 477 	 	 769 	 	 74 
  32 	 	 8 	 	 110 	 	 3 	 	 575 	 	 986 	 	 92 
  33 	 	 363 	 	 167 	 	 1 	 	 535 	 	 970 	 	 90 
  34 	 	 930 	 	 264 	 	 9 	 	 1701 	 	 1981 	 	 59 
  35 	 	 868 	 	 929 	 	 3 	 	 790 	 	 1276 	 	 57 
  36 	 	 993 	 	 800 	 	 9 	 	 1834 	 	 2167 	 	 79 
  37 	 	 695 	 	 817 	 	 4 	 	 261 	 	 723 	 	 54 
  38 	 	 689 	 	 506 	 	 10 	 	 609 	 	 986 	 	 87 
  39 	 	 384 	 	 653 	 	 5 	 	 541 	 	 789 	 	 78 
  40 	 	 670 	 	 747 	 	 4 	 	 1284 	 	 1636 	 	 62 
  41 	 	 407 	 	 439 	 	 4 	 	 85 	 	 581 	 	 97 
  42 	 	 609 	 	 179 	 	 3 	 	 1237 	 	 1487 	 	 79 
  43 	 	 731 	 	 519 	 	 10 	 	 1299 	 	 1511 	 	 53 
  44 	 	 120 	 	 356 	 	 10 	 	 888 	 	 1246 	 	 55 
  45 	 	 810 	 	 561 	 	 57 	 	 1848 	 	 2269 	 	 67 
  46 	 	 400 	 	 795 	 	 63 	 	 1230 	 	 1669 	 	 98 
  47 	 	 793 	 	 378 	 	 2 	 	 1786 	 	 2077 	 	 56 
  48 	 	 759 	 	 905 	 	 86 	 	 262 	 	 528 	 	 86 
  49 	 	 404 	 	 157 	 	 3 	 	 1855 	 	 2303 	 	 100 
  50 	 	 160 	 	 1 	 	 8 	 	 1542 	 	 1933 	 	 62 
 